p cnf 330 3110
1 2 3 4 5 6 7 8 9 10 11 0
12 13 14 15 16 17 18 19 20 21 22 0
23 24 25 26 27 28 29 30 31 32 33 0
34 35 36 37 38 39 40 41 42 43 44 0
45 46 47 48 49 50 51 52 53 54 55 0
56 57 58 59 60 61 62 63 64 65 66 0
67 68 69 70 71 72 73 74 75 76 77 0
78 79 80 81 82 83 84 85 86 87 88 0
89 90 91 92 93 94 95 96 97 98 99 0
100 101 102 103 104 105 106 107 108 109 110 0
111 112 113 114 115 116 117 118 119 120 121 0
122 123 124 125 126 127 128 129 130 131 132 0
133 134 135 136 137 138 139 140 141 142 143 0
144 145 146 147 148 149 150 151 152 153 154 0
155 156 157 158 159 160 161 162 163 164 165 0
166 167 168 169 170 171 172 173 174 175 176 0
177 178 179 180 181 182 183 184 185 186 187 0
188 189 190 191 192 193 194 195 196 197 198 0
199 200 201 202 203 204 205 206 207 208 209 0
210 211 212 213 214 215 216 217 218 219 220 0
221 222 223 224 225 226 227 228 229 230 231 0
232 233 234 235 236 237 238 239 240 241 242 0
243 244 245 246 247 248 249 250 251 252 253 0
254 255 256 257 258 259 260 261 262 263 264 0
265 266 267 268 269 270 271 272 273 274 275 0
276 277 278 279 280 281 282 283 284 285 286 0
287 288 289 290 291 292 293 294 295 296 297 0
298 299 300 301 302 303 304 305 306 307 308 0
309 310 311 312 313 314 315 316 317 318 319 0
320 321 322 323 324 325 326 327 328 329 330 0
-1 -2 0
-1 -3 0
-1 -4 0
-1 -5 0
-1 -6 0
-1 -7 0
-1 -8 0
-1 -9 0
-1 -10 0
-1 -11 0
-2 -3 0
-2 -4 0
-2 -5 0
-2 -6 0
-2 -7 0
-2 -8 0
-2 -9 0
-2 -10 0
-2 -11 0
-3 -4 0
-3 -5 0
-3 -6 0
-3 -7 0
-3 -8 0
-3 -9 0
-3 -10 0
-3 -11 0
-4 -5 0
-4 -6 0
-4 -7 0
-4 -8 0
-4 -9 0
-4 -10 0
-4 -11 0
-5 -6 0
-5 -7 0
-5 -8 0
-5 -9 0
-5 -10 0
-5 -11 0
-6 -7 0
-6 -8 0
-6 -9 0
-6 -10 0
-6 -11 0
-7 -8 0
-7 -9 0
-7 -10 0
-7 -11 0
-8 -9 0
-8 -10 0
-8 -11 0
-9 -10 0
-9 -11 0
-10 -11 0
-12 -13 0
-12 -14 0
-12 -15 0
-12 -16 0
-12 -17 0
-12 -18 0
-12 -19 0
-12 -20 0
-12 -21 0
-12 -22 0
-13 -14 0
-13 -15 0
-13 -16 0
-13 -17 0
-13 -18 0
-13 -19 0
-13 -20 0
-13 -21 0
-13 -22 0
-14 -15 0
-14 -16 0
-14 -17 0
-14 -18 0
-14 -19 0
-14 -20 0
-14 -21 0
-14 -22 0
-15 -16 0
-15 -17 0
-15 -18 0
-15 -19 0
-15 -20 0
-15 -21 0
-15 -22 0
-16 -17 0
-16 -18 0
-16 -19 0
-16 -20 0
-16 -21 0
-16 -22 0
-17 -18 0
-17 -19 0
-17 -20 0
-17 -21 0
-17 -22 0
-18 -19 0
-18 -20 0
-18 -21 0
-18 -22 0
-19 -20 0
-19 -21 0
-19 -22 0
-20 -21 0
-20 -22 0
-21 -22 0
-23 -24 0
-23 -25 0
-23 -26 0
-23 -27 0
-23 -28 0
-23 -29 0
-23 -30 0
-23 -31 0
-23 -32 0
-23 -33 0
-24 -25 0
-24 -26 0
-24 -27 0
-24 -28 0
-24 -29 0
-24 -30 0
-24 -31 0
-24 -32 0
-24 -33 0
-25 -26 0
-25 -27 0
-25 -28 0
-25 -29 0
-25 -30 0
-25 -31 0
-25 -32 0
-25 -33 0
-26 -27 0
-26 -28 0
-26 -29 0
-26 -30 0
-26 -31 0
-26 -32 0
-26 -33 0
-27 -28 0
-27 -29 0
-27 -30 0
-27 -31 0
-27 -32 0
-27 -33 0
-28 -29 0
-28 -30 0
-28 -31 0
-28 -32 0
-28 -33 0
-29 -30 0
-29 -31 0
-29 -32 0
-29 -33 0
-30 -31 0
-30 -32 0
-30 -33 0
-31 -32 0
-31 -33 0
-32 -33 0
-34 -35 0
-34 -36 0
-34 -37 0
-34 -38 0
-34 -39 0
-34 -40 0
-34 -41 0
-34 -42 0
-34 -43 0
-34 -44 0
-35 -36 0
-35 -37 0
-35 -38 0
-35 -39 0
-35 -40 0
-35 -41 0
-35 -42 0
-35 -43 0
-35 -44 0
-36 -37 0
-36 -38 0
-36 -39 0
-36 -40 0
-36 -41 0
-36 -42 0
-36 -43 0
-36 -44 0
-37 -38 0
-37 -39 0
-37 -40 0
-37 -41 0
-37 -42 0
-37 -43 0
-37 -44 0
-38 -39 0
-38 -40 0
-38 -41 0
-38 -42 0
-38 -43 0
-38 -44 0
-39 -40 0
-39 -41 0
-39 -42 0
-39 -43 0
-39 -44 0
-40 -41 0
-40 -42 0
-40 -43 0
-40 -44 0
-41 -42 0
-41 -43 0
-41 -44 0
-42 -43 0
-42 -44 0
-43 -44 0
-45 -46 0
-45 -47 0
-45 -48 0
-45 -49 0
-45 -50 0
-45 -51 0
-45 -52 0
-45 -53 0
-45 -54 0
-45 -55 0
-46 -47 0
-46 -48 0
-46 -49 0
-46 -50 0
-46 -51 0
-46 -52 0
-46 -53 0
-46 -54 0
-46 -55 0
-47 -48 0
-47 -49 0
-47 -50 0
-47 -51 0
-47 -52 0
-47 -53 0
-47 -54 0
-47 -55 0
-48 -49 0
-48 -50 0
-48 -51 0
-48 -52 0
-48 -53 0
-48 -54 0
-48 -55 0
-49 -50 0
-49 -51 0
-49 -52 0
-49 -53 0
-49 -54 0
-49 -55 0
-50 -51 0
-50 -52 0
-50 -53 0
-50 -54 0
-50 -55 0
-51 -52 0
-51 -53 0
-51 -54 0
-51 -55 0
-52 -53 0
-52 -54 0
-52 -55 0
-53 -54 0
-53 -55 0
-54 -55 0
-56 -57 0
-56 -58 0
-56 -59 0
-56 -60 0
-56 -61 0
-56 -62 0
-56 -63 0
-56 -64 0
-56 -65 0
-56 -66 0
-57 -58 0
-57 -59 0
-57 -60 0
-57 -61 0
-57 -62 0
-57 -63 0
-57 -64 0
-57 -65 0
-57 -66 0
-58 -59 0
-58 -60 0
-58 -61 0
-58 -62 0
-58 -63 0
-58 -64 0
-58 -65 0
-58 -66 0
-59 -60 0
-59 -61 0
-59 -62 0
-59 -63 0
-59 -64 0
-59 -65 0
-59 -66 0
-60 -61 0
-60 -62 0
-60 -63 0
-60 -64 0
-60 -65 0
-60 -66 0
-61 -62 0
-61 -63 0
-61 -64 0
-61 -65 0
-61 -66 0
-62 -63 0
-62 -64 0
-62 -65 0
-62 -66 0
-63 -64 0
-63 -65 0
-63 -66 0
-64 -65 0
-64 -66 0
-65 -66 0
-67 -68 0
-67 -69 0
-67 -70 0
-67 -71 0
-67 -72 0
-67 -73 0
-67 -74 0
-67 -75 0
-67 -76 0
-67 -77 0
-68 -69 0
-68 -70 0
-68 -71 0
-68 -72 0
-68 -73 0
-68 -74 0
-68 -75 0
-68 -76 0
-68 -77 0
-69 -70 0
-69 -71 0
-69 -72 0
-69 -73 0
-69 -74 0
-69 -75 0
-69 -76 0
-69 -77 0
-70 -71 0
-70 -72 0
-70 -73 0
-70 -74 0
-70 -75 0
-70 -76 0
-70 -77 0
-71 -72 0
-71 -73 0
-71 -74 0
-71 -75 0
-71 -76 0
-71 -77 0
-72 -73 0
-72 -74 0
-72 -75 0
-72 -76 0
-72 -77 0
-73 -74 0
-73 -75 0
-73 -76 0
-73 -77 0
-74 -75 0
-74 -76 0
-74 -77 0
-75 -76 0
-75 -77 0
-76 -77 0
-78 -79 0
-78 -80 0
-78 -81 0
-78 -82 0
-78 -83 0
-78 -84 0
-78 -85 0
-78 -86 0
-78 -87 0
-78 -88 0
-79 -80 0
-79 -81 0
-79 -82 0
-79 -83 0
-79 -84 0
-79 -85 0
-79 -86 0
-79 -87 0
-79 -88 0
-80 -81 0
-80 -82 0
-80 -83 0
-80 -84 0
-80 -85 0
-80 -86 0
-80 -87 0
-80 -88 0
-81 -82 0
-81 -83 0
-81 -84 0
-81 -85 0
-81 -86 0
-81 -87 0
-81 -88 0
-82 -83 0
-82 -84 0
-82 -85 0
-82 -86 0
-82 -87 0
-82 -88 0
-83 -84 0
-83 -85 0
-83 -86 0
-83 -87 0
-83 -88 0
-84 -85 0
-84 -86 0
-84 -87 0
-84 -88 0
-85 -86 0
-85 -87 0
-85 -88 0
-86 -87 0
-86 -88 0
-87 -88 0
-89 -90 0
-89 -91 0
-89 -92 0
-89 -93 0
-89 -94 0
-89 -95 0
-89 -96 0
-89 -97 0
-89 -98 0
-89 -99 0
-90 -91 0
-90 -92 0
-90 -93 0
-90 -94 0
-90 -95 0
-90 -96 0
-90 -97 0
-90 -98 0
-90 -99 0
-91 -92 0
-91 -93 0
-91 -94 0
-91 -95 0
-91 -96 0
-91 -97 0
-91 -98 0
-91 -99 0
-92 -93 0
-92 -94 0
-92 -95 0
-92 -96 0
-92 -97 0
-92 -98 0
-92 -99 0
-93 -94 0
-93 -95 0
-93 -96 0
-93 -97 0
-93 -98 0
-93 -99 0
-94 -95 0
-94 -96 0
-94 -97 0
-94 -98 0
-94 -99 0
-95 -96 0
-95 -97 0
-95 -98 0
-95 -99 0
-96 -97 0
-96 -98 0
-96 -99 0
-97 -98 0
-97 -99 0
-98 -99 0
-100 -101 0
-100 -102 0
-100 -103 0
-100 -104 0
-100 -105 0
-100 -106 0
-100 -107 0
-100 -108 0
-100 -109 0
-100 -110 0
-101 -102 0
-101 -103 0
-101 -104 0
-101 -105 0
-101 -106 0
-101 -107 0
-101 -108 0
-101 -109 0
-101 -110 0
-102 -103 0
-102 -104 0
-102 -105 0
-102 -106 0
-102 -107 0
-102 -108 0
-102 -109 0
-102 -110 0
-103 -104 0
-103 -105 0
-103 -106 0
-103 -107 0
-103 -108 0
-103 -109 0
-103 -110 0
-104 -105 0
-104 -106 0
-104 -107 0
-104 -108 0
-104 -109 0
-104 -110 0
-105 -106 0
-105 -107 0
-105 -108 0
-105 -109 0
-105 -110 0
-106 -107 0
-106 -108 0
-106 -109 0
-106 -110 0
-107 -108 0
-107 -109 0
-107 -110 0
-108 -109 0
-108 -110 0
-109 -110 0
-111 -112 0
-111 -113 0
-111 -114 0
-111 -115 0
-111 -116 0
-111 -117 0
-111 -118 0
-111 -119 0
-111 -120 0
-111 -121 0
-112 -113 0
-112 -114 0
-112 -115 0
-112 -116 0
-112 -117 0
-112 -118 0
-112 -119 0
-112 -120 0
-112 -121 0
-113 -114 0
-113 -115 0
-113 -116 0
-113 -117 0
-113 -118 0
-113 -119 0
-113 -120 0
-113 -121 0
-114 -115 0
-114 -116 0
-114 -117 0
-114 -118 0
-114 -119 0
-114 -120 0
-114 -121 0
-115 -116 0
-115 -117 0
-115 -118 0
-115 -119 0
-115 -120 0
-115 -121 0
-116 -117 0
-116 -118 0
-116 -119 0
-116 -120 0
-116 -121 0
-117 -118 0
-117 -119 0
-117 -120 0
-117 -121 0
-118 -119 0
-118 -120 0
-118 -121 0
-119 -120 0
-119 -121 0
-120 -121 0
-122 -123 0
-122 -124 0
-122 -125 0
-122 -126 0
-122 -127 0
-122 -128 0
-122 -129 0
-122 -130 0
-122 -131 0
-122 -132 0
-123 -124 0
-123 -125 0
-123 -126 0
-123 -127 0
-123 -128 0
-123 -129 0
-123 -130 0
-123 -131 0
-123 -132 0
-124 -125 0
-124 -126 0
-124 -127 0
-124 -128 0
-124 -129 0
-124 -130 0
-124 -131 0
-124 -132 0
-125 -126 0
-125 -127 0
-125 -128 0
-125 -129 0
-125 -130 0
-125 -131 0
-125 -132 0
-126 -127 0
-126 -128 0
-126 -129 0
-126 -130 0
-126 -131 0
-126 -132 0
-127 -128 0
-127 -129 0
-127 -130 0
-127 -131 0
-127 -132 0
-128 -129 0
-128 -130 0
-128 -131 0
-128 -132 0
-129 -130 0
-129 -131 0
-129 -132 0
-130 -131 0
-130 -132 0
-131 -132 0
-133 -134 0
-133 -135 0
-133 -136 0
-133 -137 0
-133 -138 0
-133 -139 0
-133 -140 0
-133 -141 0
-133 -142 0
-133 -143 0
-134 -135 0
-134 -136 0
-134 -137 0
-134 -138 0
-134 -139 0
-134 -140 0
-134 -141 0
-134 -142 0
-134 -143 0
-135 -136 0
-135 -137 0
-135 -138 0
-135 -139 0
-135 -140 0
-135 -141 0
-135 -142 0
-135 -143 0
-136 -137 0
-136 -138 0
-136 -139 0
-136 -140 0
-136 -141 0
-136 -142 0
-136 -143 0
-137 -138 0
-137 -139 0
-137 -140 0
-137 -141 0
-137 -142 0
-137 -143 0
-138 -139 0
-138 -140 0
-138 -141 0
-138 -142 0
-138 -143 0
-139 -140 0
-139 -141 0
-139 -142 0
-139 -143 0
-140 -141 0
-140 -142 0
-140 -143 0
-141 -142 0
-141 -143 0
-142 -143 0
-144 -145 0
-144 -146 0
-144 -147 0
-144 -148 0
-144 -149 0
-144 -150 0
-144 -151 0
-144 -152 0
-144 -153 0
-144 -154 0
-145 -146 0
-145 -147 0
-145 -148 0
-145 -149 0
-145 -150 0
-145 -151 0
-145 -152 0
-145 -153 0
-145 -154 0
-146 -147 0
-146 -148 0
-146 -149 0
-146 -150 0
-146 -151 0
-146 -152 0
-146 -153 0
-146 -154 0
-147 -148 0
-147 -149 0
-147 -150 0
-147 -151 0
-147 -152 0
-147 -153 0
-147 -154 0
-148 -149 0
-148 -150 0
-148 -151 0
-148 -152 0
-148 -153 0
-148 -154 0
-149 -150 0
-149 -151 0
-149 -152 0
-149 -153 0
-149 -154 0
-150 -151 0
-150 -152 0
-150 -153 0
-150 -154 0
-151 -152 0
-151 -153 0
-151 -154 0
-152 -153 0
-152 -154 0
-153 -154 0
-155 -156 0
-155 -157 0
-155 -158 0
-155 -159 0
-155 -160 0
-155 -161 0
-155 -162 0
-155 -163 0
-155 -164 0
-155 -165 0
-156 -157 0
-156 -158 0
-156 -159 0
-156 -160 0
-156 -161 0
-156 -162 0
-156 -163 0
-156 -164 0
-156 -165 0
-157 -158 0
-157 -159 0
-157 -160 0
-157 -161 0
-157 -162 0
-157 -163 0
-157 -164 0
-157 -165 0
-158 -159 0
-158 -160 0
-158 -161 0
-158 -162 0
-158 -163 0
-158 -164 0
-158 -165 0
-159 -160 0
-159 -161 0
-159 -162 0
-159 -163 0
-159 -164 0
-159 -165 0
-160 -161 0
-160 -162 0
-160 -163 0
-160 -164 0
-160 -165 0
-161 -162 0
-161 -163 0
-161 -164 0
-161 -165 0
-162 -163 0
-162 -164 0
-162 -165 0
-163 -164 0
-163 -165 0
-164 -165 0
-166 -167 0
-166 -168 0
-166 -169 0
-166 -170 0
-166 -171 0
-166 -172 0
-166 -173 0
-166 -174 0
-166 -175 0
-166 -176 0
-167 -168 0
-167 -169 0
-167 -170 0
-167 -171 0
-167 -172 0
-167 -173 0
-167 -174 0
-167 -175 0
-167 -176 0
-168 -169 0
-168 -170 0
-168 -171 0
-168 -172 0
-168 -173 0
-168 -174 0
-168 -175 0
-168 -176 0
-169 -170 0
-169 -171 0
-169 -172 0
-169 -173 0
-169 -174 0
-169 -175 0
-169 -176 0
-170 -171 0
-170 -172 0
-170 -173 0
-170 -174 0
-170 -175 0
-170 -176 0
-171 -172 0
-171 -173 0
-171 -174 0
-171 -175 0
-171 -176 0
-172 -173 0
-172 -174 0
-172 -175 0
-172 -176 0
-173 -174 0
-173 -175 0
-173 -176 0
-174 -175 0
-174 -176 0
-175 -176 0
-177 -178 0
-177 -179 0
-177 -180 0
-177 -181 0
-177 -182 0
-177 -183 0
-177 -184 0
-177 -185 0
-177 -186 0
-177 -187 0
-178 -179 0
-178 -180 0
-178 -181 0
-178 -182 0
-178 -183 0
-178 -184 0
-178 -185 0
-178 -186 0
-178 -187 0
-179 -180 0
-179 -181 0
-179 -182 0
-179 -183 0
-179 -184 0
-179 -185 0
-179 -186 0
-179 -187 0
-180 -181 0
-180 -182 0
-180 -183 0
-180 -184 0
-180 -185 0
-180 -186 0
-180 -187 0
-181 -182 0
-181 -183 0
-181 -184 0
-181 -185 0
-181 -186 0
-181 -187 0
-182 -183 0
-182 -184 0
-182 -185 0
-182 -186 0
-182 -187 0
-183 -184 0
-183 -185 0
-183 -186 0
-183 -187 0
-184 -185 0
-184 -186 0
-184 -187 0
-185 -186 0
-185 -187 0
-186 -187 0
-188 -189 0
-188 -190 0
-188 -191 0
-188 -192 0
-188 -193 0
-188 -194 0
-188 -195 0
-188 -196 0
-188 -197 0
-188 -198 0
-189 -190 0
-189 -191 0
-189 -192 0
-189 -193 0
-189 -194 0
-189 -195 0
-189 -196 0
-189 -197 0
-189 -198 0
-190 -191 0
-190 -192 0
-190 -193 0
-190 -194 0
-190 -195 0
-190 -196 0
-190 -197 0
-190 -198 0
-191 -192 0
-191 -193 0
-191 -194 0
-191 -195 0
-191 -196 0
-191 -197 0
-191 -198 0
-192 -193 0
-192 -194 0
-192 -195 0
-192 -196 0
-192 -197 0
-192 -198 0
-193 -194 0
-193 -195 0
-193 -196 0
-193 -197 0
-193 -198 0
-194 -195 0
-194 -196 0
-194 -197 0
-194 -198 0
-195 -196 0
-195 -197 0
-195 -198 0
-196 -197 0
-196 -198 0
-197 -198 0
-199 -200 0
-199 -201 0
-199 -202 0
-199 -203 0
-199 -204 0
-199 -205 0
-199 -206 0
-199 -207 0
-199 -208 0
-199 -209 0
-200 -201 0
-200 -202 0
-200 -203 0
-200 -204 0
-200 -205 0
-200 -206 0
-200 -207 0
-200 -208 0
-200 -209 0
-201 -202 0
-201 -203 0
-201 -204 0
-201 -205 0
-201 -206 0
-201 -207 0
-201 -208 0
-201 -209 0
-202 -203 0
-202 -204 0
-202 -205 0
-202 -206 0
-202 -207 0
-202 -208 0
-202 -209 0
-203 -204 0
-203 -205 0
-203 -206 0
-203 -207 0
-203 -208 0
-203 -209 0
-204 -205 0
-204 -206 0
-204 -207 0
-204 -208 0
-204 -209 0
-205 -206 0
-205 -207 0
-205 -208 0
-205 -209 0
-206 -207 0
-206 -208 0
-206 -209 0
-207 -208 0
-207 -209 0
-208 -209 0
-210 -211 0
-210 -212 0
-210 -213 0
-210 -214 0
-210 -215 0
-210 -216 0
-210 -217 0
-210 -218 0
-210 -219 0
-210 -220 0
-211 -212 0
-211 -213 0
-211 -214 0
-211 -215 0
-211 -216 0
-211 -217 0
-211 -218 0
-211 -219 0
-211 -220 0
-212 -213 0
-212 -214 0
-212 -215 0
-212 -216 0
-212 -217 0
-212 -218 0
-212 -219 0
-212 -220 0
-213 -214 0
-213 -215 0
-213 -216 0
-213 -217 0
-213 -218 0
-213 -219 0
-213 -220 0
-214 -215 0
-214 -216 0
-214 -217 0
-214 -218 0
-214 -219 0
-214 -220 0
-215 -216 0
-215 -217 0
-215 -218 0
-215 -219 0
-215 -220 0
-216 -217 0
-216 -218 0
-216 -219 0
-216 -220 0
-217 -218 0
-217 -219 0
-217 -220 0
-218 -219 0
-218 -220 0
-219 -220 0
-221 -222 0
-221 -223 0
-221 -224 0
-221 -225 0
-221 -226 0
-221 -227 0
-221 -228 0
-221 -229 0
-221 -230 0
-221 -231 0
-222 -223 0
-222 -224 0
-222 -225 0
-222 -226 0
-222 -227 0
-222 -228 0
-222 -229 0
-222 -230 0
-222 -231 0
-223 -224 0
-223 -225 0
-223 -226 0
-223 -227 0
-223 -228 0
-223 -229 0
-223 -230 0
-223 -231 0
-224 -225 0
-224 -226 0
-224 -227 0
-224 -228 0
-224 -229 0
-224 -230 0
-224 -231 0
-225 -226 0
-225 -227 0
-225 -228 0
-225 -229 0
-225 -230 0
-225 -231 0
-226 -227 0
-226 -228 0
-226 -229 0
-226 -230 0
-226 -231 0
-227 -228 0
-227 -229 0
-227 -230 0
-227 -231 0
-228 -229 0
-228 -230 0
-228 -231 0
-229 -230 0
-229 -231 0
-230 -231 0
-232 -233 0
-232 -234 0
-232 -235 0
-232 -236 0
-232 -237 0
-232 -238 0
-232 -239 0
-232 -240 0
-232 -241 0
-232 -242 0
-233 -234 0
-233 -235 0
-233 -236 0
-233 -237 0
-233 -238 0
-233 -239 0
-233 -240 0
-233 -241 0
-233 -242 0
-234 -235 0
-234 -236 0
-234 -237 0
-234 -238 0
-234 -239 0
-234 -240 0
-234 -241 0
-234 -242 0
-235 -236 0
-235 -237 0
-235 -238 0
-235 -239 0
-235 -240 0
-235 -241 0
-235 -242 0
-236 -237 0
-236 -238 0
-236 -239 0
-236 -240 0
-236 -241 0
-236 -242 0
-237 -238 0
-237 -239 0
-237 -240 0
-237 -241 0
-237 -242 0
-238 -239 0
-238 -240 0
-238 -241 0
-238 -242 0
-239 -240 0
-239 -241 0
-239 -242 0
-240 -241 0
-240 -242 0
-241 -242 0
-243 -244 0
-243 -245 0
-243 -246 0
-243 -247 0
-243 -248 0
-243 -249 0
-243 -250 0
-243 -251 0
-243 -252 0
-243 -253 0
-244 -245 0
-244 -246 0
-244 -247 0
-244 -248 0
-244 -249 0
-244 -250 0
-244 -251 0
-244 -252 0
-244 -253 0
-245 -246 0
-245 -247 0
-245 -248 0
-245 -249 0
-245 -250 0
-245 -251 0
-245 -252 0
-245 -253 0
-246 -247 0
-246 -248 0
-246 -249 0
-246 -250 0
-246 -251 0
-246 -252 0
-246 -253 0
-247 -248 0
-247 -249 0
-247 -250 0
-247 -251 0
-247 -252 0
-247 -253 0
-248 -249 0
-248 -250 0
-248 -251 0
-248 -252 0
-248 -253 0
-249 -250 0
-249 -251 0
-249 -252 0
-249 -253 0
-250 -251 0
-250 -252 0
-250 -253 0
-251 -252 0
-251 -253 0
-252 -253 0
-254 -255 0
-254 -256 0
-254 -257 0
-254 -258 0
-254 -259 0
-254 -260 0
-254 -261 0
-254 -262 0
-254 -263 0
-254 -264 0
-255 -256 0
-255 -257 0
-255 -258 0
-255 -259 0
-255 -260 0
-255 -261 0
-255 -262 0
-255 -263 0
-255 -264 0
-256 -257 0
-256 -258 0
-256 -259 0
-256 -260 0
-256 -261 0
-256 -262 0
-256 -263 0
-256 -264 0
-257 -258 0
-257 -259 0
-257 -260 0
-257 -261 0
-257 -262 0
-257 -263 0
-257 -264 0
-258 -259 0
-258 -260 0
-258 -261 0
-258 -262 0
-258 -263 0
-258 -264 0
-259 -260 0
-259 -261 0
-259 -262 0
-259 -263 0
-259 -264 0
-260 -261 0
-260 -262 0
-260 -263 0
-260 -264 0
-261 -262 0
-261 -263 0
-261 -264 0
-262 -263 0
-262 -264 0
-263 -264 0
-265 -266 0
-265 -267 0
-265 -268 0
-265 -269 0
-265 -270 0
-265 -271 0
-265 -272 0
-265 -273 0
-265 -274 0
-265 -275 0
-266 -267 0
-266 -268 0
-266 -269 0
-266 -270 0
-266 -271 0
-266 -272 0
-266 -273 0
-266 -274 0
-266 -275 0
-267 -268 0
-267 -269 0
-267 -270 0
-267 -271 0
-267 -272 0
-267 -273 0
-267 -274 0
-267 -275 0
-268 -269 0
-268 -270 0
-268 -271 0
-268 -272 0
-268 -273 0
-268 -274 0
-268 -275 0
-269 -270 0
-269 -271 0
-269 -272 0
-269 -273 0
-269 -274 0
-269 -275 0
-270 -271 0
-270 -272 0
-270 -273 0
-270 -274 0
-270 -275 0
-271 -272 0
-271 -273 0
-271 -274 0
-271 -275 0
-272 -273 0
-272 -274 0
-272 -275 0
-273 -274 0
-273 -275 0
-274 -275 0
-276 -277 0
-276 -278 0
-276 -279 0
-276 -280 0
-276 -281 0
-276 -282 0
-276 -283 0
-276 -284 0
-276 -285 0
-276 -286 0
-277 -278 0
-277 -279 0
-277 -280 0
-277 -281 0
-277 -282 0
-277 -283 0
-277 -284 0
-277 -285 0
-277 -286 0
-278 -279 0
-278 -280 0
-278 -281 0
-278 -282 0
-278 -283 0
-278 -284 0
-278 -285 0
-278 -286 0
-279 -280 0
-279 -281 0
-279 -282 0
-279 -283 0
-279 -284 0
-279 -285 0
-279 -286 0
-280 -281 0
-280 -282 0
-280 -283 0
-280 -284 0
-280 -285 0
-280 -286 0
-281 -282 0
-281 -283 0
-281 -284 0
-281 -285 0
-281 -286 0
-282 -283 0
-282 -284 0
-282 -285 0
-282 -286 0
-283 -284 0
-283 -285 0
-283 -286 0
-284 -285 0
-284 -286 0
-285 -286 0
-287 -288 0
-287 -289 0
-287 -290 0
-287 -291 0
-287 -292 0
-287 -293 0
-287 -294 0
-287 -295 0
-287 -296 0
-287 -297 0
-288 -289 0
-288 -290 0
-288 -291 0
-288 -292 0
-288 -293 0
-288 -294 0
-288 -295 0
-288 -296 0
-288 -297 0
-289 -290 0
-289 -291 0
-289 -292 0
-289 -293 0
-289 -294 0
-289 -295 0
-289 -296 0
-289 -297 0
-290 -291 0
-290 -292 0
-290 -293 0
-290 -294 0
-290 -295 0
-290 -296 0
-290 -297 0
-291 -292 0
-291 -293 0
-291 -294 0
-291 -295 0
-291 -296 0
-291 -297 0
-292 -293 0
-292 -294 0
-292 -295 0
-292 -296 0
-292 -297 0
-293 -294 0
-293 -295 0
-293 -296 0
-293 -297 0
-294 -295 0
-294 -296 0
-294 -297 0
-295 -296 0
-295 -297 0
-296 -297 0
-298 -299 0
-298 -300 0
-298 -301 0
-298 -302 0
-298 -303 0
-298 -304 0
-298 -305 0
-298 -306 0
-298 -307 0
-298 -308 0
-299 -300 0
-299 -301 0
-299 -302 0
-299 -303 0
-299 -304 0
-299 -305 0
-299 -306 0
-299 -307 0
-299 -308 0
-300 -301 0
-300 -302 0
-300 -303 0
-300 -304 0
-300 -305 0
-300 -306 0
-300 -307 0
-300 -308 0
-301 -302 0
-301 -303 0
-301 -304 0
-301 -305 0
-301 -306 0
-301 -307 0
-301 -308 0
-302 -303 0
-302 -304 0
-302 -305 0
-302 -306 0
-302 -307 0
-302 -308 0
-303 -304 0
-303 -305 0
-303 -306 0
-303 -307 0
-303 -308 0
-304 -305 0
-304 -306 0
-304 -307 0
-304 -308 0
-305 -306 0
-305 -307 0
-305 -308 0
-306 -307 0
-306 -308 0
-307 -308 0
-309 -310 0
-309 -311 0
-309 -312 0
-309 -313 0
-309 -314 0
-309 -315 0
-309 -316 0
-309 -317 0
-309 -318 0
-309 -319 0
-310 -311 0
-310 -312 0
-310 -313 0
-310 -314 0
-310 -315 0
-310 -316 0
-310 -317 0
-310 -318 0
-310 -319 0
-311 -312 0
-311 -313 0
-311 -314 0
-311 -315 0
-311 -316 0
-311 -317 0
-311 -318 0
-311 -319 0
-312 -313 0
-312 -314 0
-312 -315 0
-312 -316 0
-312 -317 0
-312 -318 0
-312 -319 0
-313 -314 0
-313 -315 0
-313 -316 0
-313 -317 0
-313 -318 0
-313 -319 0
-314 -315 0
-314 -316 0
-314 -317 0
-314 -318 0
-314 -319 0
-315 -316 0
-315 -317 0
-315 -318 0
-315 -319 0
-316 -317 0
-316 -318 0
-316 -319 0
-317 -318 0
-317 -319 0
-318 -319 0
-320 -321 0
-320 -322 0
-320 -323 0
-320 -324 0
-320 -325 0
-320 -326 0
-320 -327 0
-320 -328 0
-320 -329 0
-320 -330 0
-321 -322 0
-321 -323 0
-321 -324 0
-321 -325 0
-321 -326 0
-321 -327 0
-321 -328 0
-321 -329 0
-321 -330 0
-322 -323 0
-322 -324 0
-322 -325 0
-322 -326 0
-322 -327 0
-322 -328 0
-322 -329 0
-322 -330 0
-323 -324 0
-323 -325 0
-323 -326 0
-323 -327 0
-323 -328 0
-323 -329 0
-323 -330 0
-324 -325 0
-324 -326 0
-324 -327 0
-324 -328 0
-324 -329 0
-324 -330 0
-325 -326 0
-325 -327 0
-325 -328 0
-325 -329 0
-325 -330 0
-326 -327 0
-326 -328 0
-326 -329 0
-326 -330 0
-327 -328 0
-327 -329 0
-327 -330 0
-328 -329 0
-328 -330 0
-329 -330 0
-1 -122 0
-2 -123 0
-3 -124 0
-4 -125 0
-5 -126 0
-6 -127 0
-7 -128 0
-8 -129 0
-9 -130 0
-10 -131 0
-11 -132 0
-1 -155 0
-2 -156 0
-3 -157 0
-4 -158 0
-5 -159 0
-6 -160 0
-7 -161 0
-8 -162 0
-9 -163 0
-10 -164 0
-11 -165 0
-1 -166 0
-2 -167 0
-3 -168 0
-4 -169 0
-5 -170 0
-6 -171 0
-7 -172 0
-8 -173 0
-9 -174 0
-10 -175 0
-11 -176 0
-1 -188 0
-2 -189 0
-3 -190 0
-4 -191 0
-5 -192 0
-6 -193 0
-7 -194 0
-8 -195 0
-9 -196 0
-10 -197 0
-11 -198 0
-1 -243 0
-2 -244 0
-3 -245 0
-4 -246 0
-5 -247 0
-6 -248 0
-7 -249 0
-8 -250 0
-9 -251 0
-10 -252 0
-11 -253 0
-1 -276 0
-2 -277 0
-3 -278 0
-4 -279 0
-5 -280 0
-6 -281 0
-7 -282 0
-8 -283 0
-9 -284 0
-10 -285 0
-11 -286 0
-1 -309 0
-2 -310 0
-3 -311 0
-4 -312 0
-5 -313 0
-6 -314 0
-7 -315 0
-8 -316 0
-9 -317 0
-10 -318 0
-11 -319 0
-12 -23 0
-13 -24 0
-14 -25 0
-15 -26 0
-16 -27 0
-17 -28 0
-18 -29 0
-19 -30 0
-20 -31 0
-21 -32 0
-22 -33 0
-12 -45 0
-13 -46 0
-14 -47 0
-15 -48 0
-16 -49 0
-17 -50 0
-18 -51 0
-19 -52 0
-20 -53 0
-21 -54 0
-22 -55 0
-12 -78 0
-13 -79 0
-14 -80 0
-15 -81 0
-16 -82 0
-17 -83 0
-18 -84 0
-19 -85 0
-20 -86 0
-21 -87 0
-22 -88 0
-12 -100 0
-13 -101 0
-14 -102 0
-15 -103 0
-16 -104 0
-17 -105 0
-18 -106 0
-19 -107 0
-20 -108 0
-21 -109 0
-22 -110 0
-12 -144 0
-13 -145 0
-14 -146 0
-15 -147 0
-16 -148 0
-17 -149 0
-18 -150 0
-19 -151 0
-20 -152 0
-21 -153 0
-22 -154 0
-12 -155 0
-13 -156 0
-14 -157 0
-15 -158 0
-16 -159 0
-17 -160 0
-18 -161 0
-19 -162 0
-20 -163 0
-21 -164 0
-22 -165 0
-12 -177 0
-13 -178 0
-14 -179 0
-15 -180 0
-16 -181 0
-17 -182 0
-18 -183 0
-19 -184 0
-20 -185 0
-21 -186 0
-22 -187 0
-12 -199 0
-13 -200 0
-14 -201 0
-15 -202 0
-16 -203 0
-17 -204 0
-18 -205 0
-19 -206 0
-20 -207 0
-21 -208 0
-22 -209 0
-12 -232 0
-13 -233 0
-14 -234 0
-15 -235 0
-16 -236 0
-17 -237 0
-18 -238 0
-19 -239 0
-20 -240 0
-21 -241 0
-22 -242 0
-23 -56 0
-24 -57 0
-25 -58 0
-26 -59 0
-27 -60 0
-28 -61 0
-29 -62 0
-30 -63 0
-31 -64 0
-32 -65 0
-33 -66 0
-23 -89 0
-24 -90 0
-25 -91 0
-26 -92 0
-27 -93 0
-28 -94 0
-29 -95 0
-30 -96 0
-31 -97 0
-32 -98 0
-33 -99 0
-23 -122 0
-24 -123 0
-25 -124 0
-26 -125 0
-27 -126 0
-28 -127 0
-29 -128 0
-30 -129 0
-31 -130 0
-32 -131 0
-33 -132 0
-23 -199 0
-24 -200 0
-25 -201 0
-26 -202 0
-27 -203 0
-28 -204 0
-29 -205 0
-30 -206 0
-31 -207 0
-32 -208 0
-33 -209 0
-23 -320 0
-24 -321 0
-25 -322 0
-26 -323 0
-27 -324 0
-28 -325 0
-29 -326 0
-30 -327 0
-31 -328 0
-32 -329 0
-33 -330 0
-34 -56 0
-35 -57 0
-36 -58 0
-37 -59 0
-38 -60 0
-39 -61 0
-40 -62 0
-41 -63 0
-42 -64 0
-43 -65 0
-44 -66 0
-34 -78 0
-35 -79 0
-36 -80 0
-37 -81 0
-38 -82 0
-39 -83 0
-40 -84 0
-41 -85 0
-42 -86 0
-43 -87 0
-44 -88 0
-34 -89 0
-35 -90 0
-36 -91 0
-37 -92 0
-38 -93 0
-39 -94 0
-40 -95 0
-41 -96 0
-42 -97 0
-43 -98 0
-44 -99 0
-34 -100 0
-35 -101 0
-36 -102 0
-37 -103 0
-38 -104 0
-39 -105 0
-40 -106 0
-41 -107 0
-42 -108 0
-43 -109 0
-44 -110 0
-34 -221 0
-35 -222 0
-36 -223 0
-37 -224 0
-38 -225 0
-39 -226 0
-40 -227 0
-41 -228 0
-42 -229 0
-43 -230 0
-44 -231 0
-34 -232 0
-35 -233 0
-36 -234 0
-37 -235 0
-38 -236 0
-39 -237 0
-40 -238 0
-41 -239 0
-42 -240 0
-43 -241 0
-44 -242 0
-45 -56 0
-46 -57 0
-47 -58 0
-48 -59 0
-49 -60 0
-50 -61 0
-51 -62 0
-52 -63 0
-53 -64 0
-54 -65 0
-55 -66 0
-45 -122 0
-46 -123 0
-47 -124 0
-48 -125 0
-49 -126 0
-50 -127 0
-51 -128 0
-52 -129 0
-53 -130 0
-54 -131 0
-55 -132 0
-45 -144 0
-46 -145 0
-47 -146 0
-48 -147 0
-49 -148 0
-50 -149 0
-51 -150 0
-52 -151 0
-53 -152 0
-54 -153 0
-55 -154 0
-45 -155 0
-46 -156 0
-47 -157 0
-48 -158 0
-49 -159 0
-50 -160 0
-51 -161 0
-52 -162 0
-53 -163 0
-54 -164 0
-55 -165 0
-45 -166 0
-46 -167 0
-47 -168 0
-48 -169 0
-49 -170 0
-50 -171 0
-51 -172 0
-52 -173 0
-53 -174 0
-54 -175 0
-55 -176 0
-45 -254 0
-46 -255 0
-47 -256 0
-48 -257 0
-49 -258 0
-50 -259 0
-51 -260 0
-52 -261 0
-53 -262 0
-54 -263 0
-55 -264 0
-45 -298 0
-46 -299 0
-47 -300 0
-48 -301 0
-49 -302 0
-50 -303 0
-51 -304 0
-52 -305 0
-53 -306 0
-54 -307 0
-55 -308 0
-45 -309 0
-46 -310 0
-47 -311 0
-48 -312 0
-49 -313 0
-50 -314 0
-51 -315 0
-52 -316 0
-53 -317 0
-54 -318 0
-55 -319 0
-45 -320 0
-46 -321 0
-47 -322 0
-48 -323 0
-49 -324 0
-50 -325 0
-51 -326 0
-52 -327 0
-53 -328 0
-54 -329 0
-55 -330 0
-56 -89 0
-57 -90 0
-58 -91 0
-59 -92 0
-60 -93 0
-61 -94 0
-62 -95 0
-63 -96 0
-64 -97 0
-65 -98 0
-66 -99 0
-56 -111 0
-57 -112 0
-58 -113 0
-59 -114 0
-60 -115 0
-61 -116 0
-62 -117 0
-63 -118 0
-64 -119 0
-65 -120 0
-66 -121 0
-56 -155 0
-57 -156 0
-58 -157 0
-59 -158 0
-60 -159 0
-61 -160 0
-62 -161 0
-63 -162 0
-64 -163 0
-65 -164 0
-66 -165 0
-56 -166 0
-57 -167 0
-58 -168 0
-59 -169 0
-60 -170 0
-61 -171 0
-62 -172 0
-63 -173 0
-64 -174 0
-65 -175 0
-66 -176 0
-56 -265 0
-57 -266 0
-58 -267 0
-59 -268 0
-60 -269 0
-61 -270 0
-62 -271 0
-63 -272 0
-64 -273 0
-65 -274 0
-66 -275 0
-56 -276 0
-57 -277 0
-58 -278 0
-59 -279 0
-60 -280 0
-61 -281 0
-62 -282 0
-63 -283 0
-64 -284 0
-65 -285 0
-66 -286 0
-67 -78 0
-68 -79 0
-69 -80 0
-70 -81 0
-71 -82 0
-72 -83 0
-73 -84 0
-74 -85 0
-75 -86 0
-76 -87 0
-77 -88 0
-67 -243 0
-68 -244 0
-69 -245 0
-70 -246 0
-71 -247 0
-72 -248 0
-73 -249 0
-74 -250 0
-75 -251 0
-76 -252 0
-77 -253 0
-67 -254 0
-68 -255 0
-69 -256 0
-70 -257 0
-71 -258 0
-72 -259 0
-73 -260 0
-74 -261 0
-75 -262 0
-76 -263 0
-77 -264 0
-67 -298 0
-68 -299 0
-69 -300 0
-70 -301 0
-71 -302 0
-72 -303 0
-73 -304 0
-74 -305 0
-75 -306 0
-76 -307 0
-77 -308 0
-67 -309 0
-68 -310 0
-69 -311 0
-70 -312 0
-71 -313 0
-72 -314 0
-73 -315 0
-74 -316 0
-75 -317 0
-76 -318 0
-77 -319 0
-78 -100 0
-79 -101 0
-80 -102 0
-81 -103 0
-82 -104 0
-83 -105 0
-84 -106 0
-85 -107 0
-86 -108 0
-87 -109 0
-88 -110 0
-78 -122 0
-79 -123 0
-80 -124 0
-81 -125 0
-82 -126 0
-83 -127 0
-84 -128 0
-85 -129 0
-86 -130 0
-87 -131 0
-88 -132 0
-78 -133 0
-79 -134 0
-80 -135 0
-81 -136 0
-82 -137 0
-83 -138 0
-84 -139 0
-85 -140 0
-86 -141 0
-87 -142 0
-88 -143 0
-78 -188 0
-79 -189 0
-80 -190 0
-81 -191 0
-82 -192 0
-83 -193 0
-84 -194 0
-85 -195 0
-86 -196 0
-87 -197 0
-88 -198 0
-78 -199 0
-79 -200 0
-80 -201 0
-81 -202 0
-82 -203 0
-83 -204 0
-84 -205 0
-85 -206 0
-86 -207 0
-87 -208 0
-88 -209 0
-78 -210 0
-79 -211 0
-80 -212 0
-81 -213 0
-82 -214 0
-83 -215 0
-84 -216 0
-85 -217 0
-86 -218 0
-87 -219 0
-88 -220 0
-78 -265 0
-79 -266 0
-80 -267 0
-81 -268 0
-82 -269 0
-83 -270 0
-84 -271 0
-85 -272 0
-86 -273 0
-87 -274 0
-88 -275 0
-78 -276 0
-79 -277 0
-80 -278 0
-81 -279 0
-82 -280 0
-83 -281 0
-84 -282 0
-85 -283 0
-86 -284 0
-87 -285 0
-88 -286 0
-78 -287 0
-79 -288 0
-80 -289 0
-81 -290 0
-82 -291 0
-83 -292 0
-84 -293 0
-85 -294 0
-86 -295 0
-87 -296 0
-88 -297 0
-78 -309 0
-79 -310 0
-80 -311 0
-81 -312 0
-82 -313 0
-83 -314 0
-84 -315 0
-85 -316 0
-86 -317 0
-87 -318 0
-88 -319 0
-89 -111 0
-90 -112 0
-91 -113 0
-92 -114 0
-93 -115 0
-94 -116 0
-95 -117 0
-96 -118 0
-97 -119 0
-98 -120 0
-99 -121 0
-89 -122 0
-90 -123 0
-91 -124 0
-92 -125 0
-93 -126 0
-94 -127 0
-95 -128 0
-96 -129 0
-97 -130 0
-98 -131 0
-99 -132 0
-89 -155 0
-90 -156 0
-91 -157 0
-92 -158 0
-93 -159 0
-94 -160 0
-95 -161 0
-96 -162 0
-97 -163 0
-98 -164 0
-99 -165 0
-89 -221 0
-90 -222 0
-91 -223 0
-92 -224 0
-93 -225 0
-94 -226 0
-95 -227 0
-96 -228 0
-97 -229 0
-98 -230 0
-99 -231 0
-89 -232 0
-90 -233 0
-91 -234 0
-92 -235 0
-93 -236 0
-94 -237 0
-95 -238 0
-96 -239 0
-97 -240 0
-98 -241 0
-99 -242 0
-89 -254 0
-90 -255 0
-91 -256 0
-92 -257 0
-93 -258 0
-94 -259 0
-95 -260 0
-96 -261 0
-97 -262 0
-98 -263 0
-99 -264 0
-89 -320 0
-90 -321 0
-91 -322 0
-92 -323 0
-93 -324 0
-94 -325 0
-95 -326 0
-96 -327 0
-97 -328 0
-98 -329 0
-99 -330 0
-100 -133 0
-101 -134 0
-102 -135 0
-103 -136 0
-104 -137 0
-105 -138 0
-106 -139 0
-107 -140 0
-108 -141 0
-109 -142 0
-110 -143 0
-100 -144 0
-101 -145 0
-102 -146 0
-103 -147 0
-104 -148 0
-105 -149 0
-106 -150 0
-107 -151 0
-108 -152 0
-109 -153 0
-110 -154 0
-100 -155 0
-101 -156 0
-102 -157 0
-103 -158 0
-104 -159 0
-105 -160 0
-106 -161 0
-107 -162 0
-108 -163 0
-109 -164 0
-110 -165 0
-100 -177 0
-101 -178 0
-102 -179 0
-103 -180 0
-104 -181 0
-105 -182 0
-106 -183 0
-107 -184 0
-108 -185 0
-109 -186 0
-110 -187 0
-100 -188 0
-101 -189 0
-102 -190 0
-103 -191 0
-104 -192 0
-105 -193 0
-106 -194 0
-107 -195 0
-108 -196 0
-109 -197 0
-110 -198 0
-100 -199 0
-101 -200 0
-102 -201 0
-103 -202 0
-104 -203 0
-105 -204 0
-106 -205 0
-107 -206 0
-108 -207 0
-109 -208 0
-110 -209 0
-100 -243 0
-101 -244 0
-102 -245 0
-103 -246 0
-104 -247 0
-105 -248 0
-106 -249 0
-107 -250 0
-108 -251 0
-109 -252 0
-110 -253 0
-100 -254 0
-101 -255 0
-102 -256 0
-103 -257 0
-104 -258 0
-105 -259 0
-106 -260 0
-107 -261 0
-108 -262 0
-109 -263 0
-110 -264 0
-100 -276 0
-101 -277 0
-102 -278 0
-103 -279 0
-104 -280 0
-105 -281 0
-106 -282 0
-107 -283 0
-108 -284 0
-109 -285 0
-110 -286 0
-100 -309 0
-101 -310 0
-102 -311 0
-103 -312 0
-104 -313 0
-105 -314 0
-106 -315 0
-107 -316 0
-108 -317 0
-109 -318 0
-110 -319 0
-111 -133 0
-112 -134 0
-113 -135 0
-114 -136 0
-115 -137 0
-116 -138 0
-117 -139 0
-118 -140 0
-119 -141 0
-120 -142 0
-121 -143 0
-111 -188 0
-112 -189 0
-113 -190 0
-114 -191 0
-115 -192 0
-116 -193 0
-117 -194 0
-118 -195 0
-119 -196 0
-120 -197 0
-121 -198 0
-111 -232 0
-112 -233 0
-113 -234 0
-114 -235 0
-115 -236 0
-116 -237 0
-117 -238 0
-118 -239 0
-119 -240 0
-120 -241 0
-121 -242 0
-111 -243 0
-112 -244 0
-113 -245 0
-114 -246 0
-115 -247 0
-116 -248 0
-117 -249 0
-118 -250 0
-119 -251 0
-120 -252 0
-121 -253 0
-111 -276 0
-112 -277 0
-113 -278 0
-114 -279 0
-115 -280 0
-116 -281 0
-117 -282 0
-118 -283 0
-119 -284 0
-120 -285 0
-121 -286 0
-111 -309 0
-112 -310 0
-113 -311 0
-114 -312 0
-115 -313 0
-116 -314 0
-117 -315 0
-118 -316 0
-119 -317 0
-120 -318 0
-121 -319 0
-122 -144 0
-123 -145 0
-124 -146 0
-125 -147 0
-126 -148 0
-127 -149 0
-128 -150 0
-129 -151 0
-130 -152 0
-131 -153 0
-132 -154 0
-122 -199 0
-123 -200 0
-124 -201 0
-125 -202 0
-126 -203 0
-127 -204 0
-128 -205 0
-129 -206 0
-130 -207 0
-131 -208 0
-132 -209 0
-122 -287 0
-123 -288 0
-124 -289 0
-125 -290 0
-126 -291 0
-127 -292 0
-128 -293 0
-129 -294 0
-130 -295 0
-131 -296 0
-132 -297 0
-122 -298 0
-123 -299 0
-124 -300 0
-125 -301 0
-126 -302 0
-127 -303 0
-128 -304 0
-129 -305 0
-130 -306 0
-131 -307 0
-132 -308 0
-122 -320 0
-123 -321 0
-124 -322 0
-125 -323 0
-126 -324 0
-127 -325 0
-128 -326 0
-129 -327 0
-130 -328 0
-131 -329 0
-132 -330 0
-133 -144 0
-134 -145 0
-135 -146 0
-136 -147 0
-137 -148 0
-138 -149 0
-139 -150 0
-140 -151 0
-141 -152 0
-142 -153 0
-143 -154 0
-133 -199 0
-134 -200 0
-135 -201 0
-136 -202 0
-137 -203 0
-138 -204 0
-139 -205 0
-140 -206 0
-141 -207 0
-142 -208 0
-143 -209 0
-133 -276 0
-134 -277 0
-135 -278 0
-136 -279 0
-137 -280 0
-138 -281 0
-139 -282 0
-140 -283 0
-141 -284 0
-142 -285 0
-143 -286 0
-133 -298 0
-134 -299 0
-135 -300 0
-136 -301 0
-137 -302 0
-138 -303 0
-139 -304 0
-140 -305 0
-141 -306 0
-142 -307 0
-143 -308 0
-133 -309 0
-134 -310 0
-135 -311 0
-136 -312 0
-137 -313 0
-138 -314 0
-139 -315 0
-140 -316 0
-141 -317 0
-142 -318 0
-143 -319 0
-144 -177 0
-145 -178 0
-146 -179 0
-147 -180 0
-148 -181 0
-149 -182 0
-150 -183 0
-151 -184 0
-152 -185 0
-153 -186 0
-154 -187 0
-144 -221 0
-145 -222 0
-146 -223 0
-147 -224 0
-148 -225 0
-149 -226 0
-150 -227 0
-151 -228 0
-152 -229 0
-153 -230 0
-154 -231 0
-144 -265 0
-145 -266 0
-146 -267 0
-147 -268 0
-148 -269 0
-149 -270 0
-150 -271 0
-151 -272 0
-152 -273 0
-153 -274 0
-154 -275 0
-144 -298 0
-145 -299 0
-146 -300 0
-147 -301 0
-148 -302 0
-149 -303 0
-150 -304 0
-151 -305 0
-152 -306 0
-153 -307 0
-154 -308 0
-155 -177 0
-156 -178 0
-157 -179 0
-158 -180 0
-159 -181 0
-160 -182 0
-161 -183 0
-162 -184 0
-163 -185 0
-164 -186 0
-165 -187 0
-155 -188 0
-156 -189 0
-157 -190 0
-158 -191 0
-159 -192 0
-160 -193 0
-161 -194 0
-162 -195 0
-163 -196 0
-164 -197 0
-165 -198 0
-155 -287 0
-156 -288 0
-157 -289 0
-158 -290 0
-159 -291 0
-160 -292 0
-161 -293 0
-162 -294 0
-163 -295 0
-164 -296 0
-165 -297 0
-155 -309 0
-156 -310 0
-157 -311 0
-158 -312 0
-159 -313 0
-160 -314 0
-161 -315 0
-162 -316 0
-163 -317 0
-164 -318 0
-165 -319 0
-166 -199 0
-167 -200 0
-168 -201 0
-169 -202 0
-170 -203 0
-171 -204 0
-172 -205 0
-173 -206 0
-174 -207 0
-175 -208 0
-176 -209 0
-166 -265 0
-167 -266 0
-168 -267 0
-169 -268 0
-170 -269 0
-171 -270 0
-172 -271 0
-173 -272 0
-174 -273 0
-175 -274 0
-176 -275 0
-166 -287 0
-167 -288 0
-168 -289 0
-169 -290 0
-170 -291 0
-171 -292 0
-172 -293 0
-173 -294 0
-174 -295 0
-175 -296 0
-176 -297 0
-166 -298 0
-167 -299 0
-168 -300 0
-169 -301 0
-170 -302 0
-171 -303 0
-172 -304 0
-173 -305 0
-174 -306 0
-175 -307 0
-176 -308 0
-177 -221 0
-178 -222 0
-179 -223 0
-180 -224 0
-181 -225 0
-182 -226 0
-183 -227 0
-184 -228 0
-185 -229 0
-186 -230 0
-187 -231 0
-177 -320 0
-178 -321 0
-179 -322 0
-180 -323 0
-181 -324 0
-182 -325 0
-183 -326 0
-184 -327 0
-185 -328 0
-186 -329 0
-187 -330 0
-188 -276 0
-189 -277 0
-190 -278 0
-191 -279 0
-192 -280 0
-193 -281 0
-194 -282 0
-195 -283 0
-196 -284 0
-197 -285 0
-198 -286 0
-188 -287 0
-189 -288 0
-190 -289 0
-191 -290 0
-192 -291 0
-193 -292 0
-194 -293 0
-195 -294 0
-196 -295 0
-197 -296 0
-198 -297 0
-199 -232 0
-200 -233 0
-201 -234 0
-202 -235 0
-203 -236 0
-204 -237 0
-205 -238 0
-206 -239 0
-207 -240 0
-208 -241 0
-209 -242 0
-199 -243 0
-200 -244 0
-201 -245 0
-202 -246 0
-203 -247 0
-204 -248 0
-205 -249 0
-206 -250 0
-207 -251 0
-208 -252 0
-209 -253 0
-199 -309 0
-200 -310 0
-201 -311 0
-202 -312 0
-203 -313 0
-204 -314 0
-205 -315 0
-206 -316 0
-207 -317 0
-208 -318 0
-209 -319 0
-210 -221 0
-211 -222 0
-212 -223 0
-213 -224 0
-214 -225 0
-215 -226 0
-216 -227 0
-217 -228 0
-218 -229 0
-219 -230 0
-220 -231 0
-210 -276 0
-211 -277 0
-212 -278 0
-213 -279 0
-214 -280 0
-215 -281 0
-216 -282 0
-217 -283 0
-218 -284 0
-219 -285 0
-220 -286 0
-210 -320 0
-211 -321 0
-212 -322 0
-213 -323 0
-214 -324 0
-215 -325 0
-216 -326 0
-217 -327 0
-218 -328 0
-219 -329 0
-220 -330 0
-221 -243 0
-222 -244 0
-223 -245 0
-224 -246 0
-225 -247 0
-226 -248 0
-227 -249 0
-228 -250 0
-229 -251 0
-230 -252 0
-231 -253 0
-221 -309 0
-222 -310 0
-223 -311 0
-224 -312 0
-225 -313 0
-226 -314 0
-227 -315 0
-228 -316 0
-229 -317 0
-230 -318 0
-231 -319 0
-232 -243 0
-233 -244 0
-234 -245 0
-235 -246 0
-236 -247 0
-237 -248 0
-238 -249 0
-239 -250 0
-240 -251 0
-241 -252 0
-242 -253 0
-232 -265 0
-233 -266 0
-234 -267 0
-235 -268 0
-236 -269 0
-237 -270 0
-238 -271 0
-239 -272 0
-240 -273 0
-241 -274 0
-242 -275 0
-232 -276 0
-233 -277 0
-234 -278 0
-235 -279 0
-236 -280 0
-237 -281 0
-238 -282 0
-239 -283 0
-240 -284 0
-241 -285 0
-242 -286 0
-232 -309 0
-233 -310 0
-234 -311 0
-235 -312 0
-236 -313 0
-237 -314 0
-238 -315 0
-239 -316 0
-240 -317 0
-241 -318 0
-242 -319 0
-232 -320 0
-233 -321 0
-234 -322 0
-235 -323 0
-236 -324 0
-237 -325 0
-238 -326 0
-239 -327 0
-240 -328 0
-241 -329 0
-242 -330 0
-243 -254 0
-244 -255 0
-245 -256 0
-246 -257 0
-247 -258 0
-248 -259 0
-249 -260 0
-250 -261 0
-251 -262 0
-252 -263 0
-253 -264 0
-254 -265 0
-255 -266 0
-256 -267 0
-257 -268 0
-258 -269 0
-259 -270 0
-260 -271 0
-261 -272 0
-262 -273 0
-263 -274 0
-264 -275 0
-254 -320 0
-255 -321 0
-256 -322 0
-257 -323 0
-258 -324 0
-259 -325 0
-260 -326 0
-261 -327 0
-262 -328 0
-263 -329 0
-264 -330 0
-265 -276 0
-266 -277 0
-267 -278 0
-268 -279 0
-269 -280 0
-270 -281 0
-271 -282 0
-272 -283 0
-273 -284 0
-274 -285 0
-275 -286 0
-265 -298 0
-266 -299 0
-267 -300 0
-268 -301 0
-269 -302 0
-270 -303 0
-271 -304 0
-272 -305 0
-273 -306 0
-274 -307 0
-275 -308 0
-265 -309 0
-266 -310 0
-267 -311 0
-268 -312 0
-269 -313 0
-270 -314 0
-271 -315 0
-272 -316 0
-273 -317 0
-274 -318 0
-275 -319 0
-276 -287 0
-277 -288 0
-278 -289 0
-279 -290 0
-280 -291 0
-281 -292 0
-282 -293 0
-283 -294 0
-284 -295 0
-285 -296 0
-286 -297 0
-276 -298 0
-277 -299 0
-278 -300 0
-279 -301 0
-280 -302 0
-281 -303 0
-282 -304 0
-283 -305 0
-284 -306 0
-285 -307 0
-286 -308 0
-276 -320 0
-277 -321 0
-278 -322 0
-279 -323 0
-280 -324 0
-281 -325 0
-282 -326 0
-283 -327 0
-284 -328 0
-285 -329 0
-286 -330 0
-287 -309 0
-288 -310 0
-289 -311 0
-290 -312 0
-291 -313 0
-292 -314 0
-293 -315 0
-294 -316 0
-295 -317 0
-296 -318 0
-297 -319 0
-298 -309 0
-299 -310 0
-300 -311 0
-301 -312 0
-302 -313 0
-303 -314 0
-304 -315 0
-305 -316 0
-306 -317 0
-307 -318 0
-308 -319 0
